101890
35,30,2,38,16,27,33,11,75,82,40,32,74,58,77,17,56,7,51,72,81,60,47,49,34,57,43,3,12,23,55,42,25,69,78,15,61,6,79,28,8,83,53,59,68,44,22,5,19,31,24,48,21,54,71,66,9,20,67,76,36,26,70,14,62,80,46,45,73,64,29,10,1,13,37,18,65,50,4,63,39,41,52